--- Job agnostic_instrument.gms Start 01/21/22 20:09:04 30.3.0 rc5da09e WEX-WEI x86 64bit/MS Windows
--- GAMS Parameters defined
    Input C:\Users\a.eicke\Documents\Locational-investment-signals\Two node models\agnostic_instrument.gms
    PageSize 0
    ScrDir C:\Users\a.eicke\Documents\Locational-investment-signals\Two node models\225b\
    SysDir C:\GAMS\win64\30.3\
    LogOption 3
    ErrMsg 1
    ErrorLog 99
    IDE 1
    LstTitleLeftAligned 1
GAMS 30.3.0   Copyright (C) 1987-2020 GAMS Development. All rights reserved
Licensee: Small MUD - 5 User License                     S190305:0326AO-WIN
          Hertie School of Governance GmbH, Governance of DigitalizaDC14808
--- Starting compilation
--- agnostic_instrument.gms(71) 3 Mb
--- GDXin=C:\Users\a.eicke\Documents\Locational-investment-signals\Two node models\in.gdx
--- agnostic_instrument.gms(291) 3 Mb
--- Starting execution: elapsed 0:00:00.012
--- agnostic_instrument.gms(258) 4 Mb
--- Generating MIQCP model LOCI
--- agnostic_instrument.gms(261) 6 Mb
---   1,151 rows  875 columns  3,195 non-zeroes
---   202 nl-code  32 nl-non-zeroes
---   232 discrete-columns
--- agnostic_instrument.gms(261) 4 Mb
--- Executing CPLEX: elapsed 0:00:00.031

IBM ILOG CPLEX   30.3.0 rc5da09e Released Mar 06, 2020 WEI x86 64bit/MS Window
--- GAMS/Cplex licensed for continuous and discrete problems.
Cplex 12.10.0.0

The search will stop after 65000000 nodes.
Reading data...
Starting Cplex...
Space for names approximately 0.06 Mb
Use option 'names no' to turn use of names off
Version identifier: 12.10.0.0 | 2019-11-26 | 843d4de2ae
CPXPARAM_Advance                                 0
CPXPARAM_Threads                                 1
CPXPARAM_Parallel                                1
CPXPARAM_MIP_Display                             4
CPXPARAM_Simplex_Limits_Iterations               2000000000
CPXPARAM_MIP_Limits_Nodes                        65000000
CPXPARAM_TimeLimit                               150000
CPXPARAM_Tune_TimeLimit                          30000
CPXPARAM_MIP_Tolerances_AbsMIPGap                0
CPXPARAM_MIP_Tolerances_MIPGap                   0.001
CPXPARAM_WorkDir                                 "C:\Users\a.eicke\Documents\Locational-investment-signals\Two node models\225b\"
Tried aggregator 2 times.
MIQP Presolve eliminated 388 rows and 116 columns.
MIQP Presolve modified 310 coefficients.
Aggregator did 37 substitutions.
Reduced MIQP has 726 rows, 717 columns, and 2230 nonzeros.
Reduced MIQP has 200 binaries, 0 generals, 0 SOSs, and 0 indicators.
Reduced MIQP objective Q matrix has 32 nonzeros.
Presolve time = 0.00 sec. (2.05 ticks)
Probing fixed 12 vars, tightened 56 bounds.
Probing time = 0.00 sec. (0.78 ticks)
Tried aggregator 1 time.
MIQP Presolve eliminated 24 rows and 12 columns.
MIQP Presolve modified 16 coefficients.
Reduced MIQP has 702 rows, 705 columns, and 2108 nonzeros.
Reduced MIQP has 188 binaries, 0 generals, 0 SOSs, and 0 indicators.
Reduced MIQP objective Q matrix has 32 nonzeros.
Presolve time = 0.02 sec. (0.89 ticks)
Classifier predicts products in MIQP should be linearized.
Probing fixed 5 vars, tightened 443 bounds.
Probing time = 0.00 sec. (1.22 ticks)
Clique table members: 125.
MIP emphasis: balance optimality and feasibility.
MIP search method: dynamic search.
Parallel mode: none, using 1 thread.
Tried aggregator 1 time.
QP Presolve eliminated 101 rows and 101 columns.
Aggregator did 135 substitutions.
Reduced QP has 466 rows, 469 columns, and 1571 nonzeros.
Reduced QP objective Q matrix has 32 nonzeros.
Presolve time = 0.00 sec. (0.57 ticks)
Parallel mode: none, using 1 thread for barrier

***NOTE: Found 6 dense columns.

Number of nonzeros in lower triangle of A*A' = 2236
Using Approximate Minimum Degree ordering
Total time for automatic ordering = 0.00 sec. (0.21 ticks)
Summary statistics for Cholesky factor:
  Rows in Factor            = 472
  Integer space required    = 1344
  Total non-zeros in factor = 6584
  Total FP ops to factor    = 136656
 Itn      Primal Obj        Dual Obj  Prim Inf Upper Inf  Dual Inf          
   0  -2.5643329e+07   2.7022175e+08  2.32e+05  2.03e+05  1.77e+05
   1  -6.3116715e+06   1.3349601e+08  1.15e+05  1.01e+05  8.79e+04
   2  -7.7254802e+05   4.2990668e+07  3.55e+04  3.11e+04  2.72e+04
   3  -1.1819147e+05   1.3609342e+07  9.57e+03  8.39e+03  7.33e+03
   4   3.0579478e+04   3.7303038e+06  2.05e+03  1.79e+03  1.57e+03
   5   1.0179174e+05   6.6377390e+05  2.60e+02  2.28e+02  1.99e+02
   6   1.3406110e+05   3.2932123e+05  7.33e+01  6.43e+01  5.62e+01
   7   1.4647033e+05   2.1755378e+05  2.35e+01  2.06e+01  1.80e+01
   8   1.4824391e+05   1.8198594e+05  2.88e+00  2.53e+00  2.21e+00
   9   1.5062046e+05   1.6828342e+05  1.11e+00  9.75e-01  8.52e-01
  10   1.5273688e+05   1.5601797e+05  1.37e-01  1.20e-01  1.05e-01
  11   1.5313470e+05   1.5398329e+05  2.66e-02  2.32e-02  2.03e-02
  12   1.5322427e+05   1.5348890e+05  8.26e-03  7.23e-03  6.32e-03
  13   1.5325369e+05   1.5331998e+05  2.07e-03  1.81e-03  1.58e-03
  14   1.5326250e+05   1.5326725e+05  1.42e-04  1.24e-04  1.08e-04
  15   1.5326329e+05   1.5326389e+05  1.76e-05  1.54e-05  1.35e-05
  16   1.5326340e+05   1.5326348e+05  2.38e-06  2.08e-06  1.82e-06
  17   1.5326341e+05   1.5326342e+05  1.91e-07  1.54e-07  1.34e-07
  18   1.5326341e+05   1.5326341e+05  1.61e-08  1.27e-09  8.95e-10
  19   1.5326341e+05   1.5326341e+05  2.24e-08  2.25e-10  1.74e-11
Barrier time = 0.02 sec. (7.83 ticks)

QP crossover.
  Primal and Dual:  Fixing 265 variables.
  Primal:  Pushed 133, exchanged 102.
  Dual  :  Pushed 11, exchanged 81.

Iteration log . . .
Iteration:     1    Objective     =        153263.411351
Total crossover time = 0.02 sec. (5.65 ticks)

Total time on 1 threads = 0.03 sec. (14.10 ticks)
Root relaxation solution time = 0.03 sec. (14.11 ticks)

        Nodes                                         Cuts/
   Node  Left     Objective  IInf  Best Integer    Best Bound    ItCnt     Gap

      0     0   153263.4114   136                 153263.4114       21         
      0     0   153263.4114   136                   Cuts: 275      716         
      0     0   153263.4114   136                   Cuts: 275      971         
      0     0   153263.4114   136                   Cuts: 117     1196         
      0     0   153263.4114   136                    Cuts: 13     1278         
      0     2   153263.4114    82                 153263.4114     1278         
Elapsed time = 0.48 sec. (237.74 ticks, tree = 0.01 MB, solutions = 0)
     32    32   153226.7653    35                 153263.4114     5661         
     78    76   153030.4885    15                 153263.4114    11682         
    103    97   146390.8813    18                 153263.4114    18577         
    120   108   153263.4114    25                 153263.4114    22433         
                                                  Impl Bds: 4                  
    153   141   153222.9879    22                 153263.4114    28762         
    190   176   152561.1070    14                 153263.4114    34765         
    230   206   153159.4314     4                 153263.4114    39285         
    275   243   153263.4114    17                 153263.4114    46023         
                                                  Impl Bds: 1                  
    298   266   153175.1359    16                 153263.4114    51545         
    467   383   151519.7744     8                 153263.4114    76839         
                                                  Impl Bds: 3                  
Elapsed time = 6.22 sec. (3439.72 ticks, tree = 0.19 MB, solutions = 0)
*   498   240      integral     0   153091.7948   153263.4114    79489    0.11%
Found incumbent of value 153091.794779 after 6.34 sec. (3540.97 ticks)
*   608+  334                       153095.7085   153263.4114             0.11%
                                                  Impl Bds: 3                  
Found incumbent of value 153095.708518 after 6.69 sec. (3784.00 ticks)
*   609+  222                       153202.0624   153263.4114             0.04%
Found incumbent of value 153202.062403 after 7.30 sec. (4135.62 ticks)

Clique cuts applied:  21
Implied bound cuts applied:  95
Flow cuts applied:  78
Mixed integer rounding cuts applied:  36
Gomory fractional cuts applied:  4

Root node processing (before b&c):
  Real time             =    0.48 sec. (237.74 ticks)
Sequential b&c:
  Real time             =    6.83 sec. (3899.08 ticks)
                          ------------
Total (root+branch&cut) =    7.31 sec. (4136.81 ticks)
MIQP status(102): integer optimal, tolerance
Cplex Time: 7.31sec (det. 4136.82 ticks)
Fixing integer variables, and solving final QP..
Version identifier: 12.10.0.0 | 2019-11-26 | 843d4de2ae
CPXPARAM_Advance                                 2
CPXPARAM_Threads                                 1
CPXPARAM_Parallel                                1
CPXPARAM_MIP_Display                             4
CPXPARAM_Simplex_Limits_Iterations               2000000000
CPXPARAM_MIP_Limits_Nodes                        65000000
CPXPARAM_TimeLimit                               150000
CPXPARAM_Tune_TimeLimit                          30000
CPXPARAM_MIP_Tolerances_AbsMIPGap                0
CPXPARAM_MIP_Tolerances_MIPGap                   0.001
CPXPARAM_WorkDir                                 "C:\Users\a.eicke\Documents\Locational-investment-signals\Two node models\225b\"
Tried aggregator 1 time.
QP Presolve eliminated 859 rows and 598 columns.
Aggregator did 160 substitutions.
Reduced QP has 132 rows, 117 columns, and 595 nonzeros.
Reduced QP objective Q matrix has 30 nonzeros.
Presolve time = 0.00 sec. (0.96 ticks)
Parallel mode: none, using 1 thread for barrier

***NOTE: Found 6 dense columns.

Number of nonzeros in lower triangle of A*A' = 490
Using Approximate Minimum Degree ordering
Total time for automatic ordering = 0.00 sec. (0.03 ticks)
Summary statistics for Cholesky factor:
  Rows in Factor            = 138
  Integer space required    = 259
  Total non-zeros in factor = 1306
  Total FP ops to factor    = 17122
 Itn      Primal Obj        Dual Obj  Prim Inf Upper Inf  Dual Inf          
   0   1.0945248e+05   4.9902805e+05  4.47e+03  1.25e+02  1.49e+04
   1   1.3325630e+05   4.8440057e+05  3.69e+03  1.03e+02  1.28e+04
   2   1.3345300e+05   4.7964811e+05  3.56e+03  1.10e+02  1.33e+04
   3   1.3132358e+05   4.8851137e+05  3.28e+03  1.11e+02  1.52e+04
   4   1.2987202e+05   5.3070042e+05  2.92e+03  9.89e+01  1.58e+04
   5   1.2879720e+05   5.1776522e+05  2.64e+03  8.93e+01  1.45e+04
   6   1.4735976e+05   1.7052813e+05  6.98e+02  2.36e+01  7.96e+03
   7   1.5100778e+05   1.4380660e+05  2.01e+02  6.82e+00  2.59e+03
   8   1.5108229e+05   1.5310608e+05  9.01e+01  3.32e+00  1.14e+03
   9   1.5172994e+05   1.5362914e+05  4.15e+01  1.53e+00  5.68e+02
  10   1.5174858e+05   1.5483642e+05  2.15e+01  7.92e-01  3.35e+02
  11   1.5216392e+05   1.5497817e+05  1.37e+01  5.07e-01  2.61e+02
  12   1.5173593e+05   1.5567230e+05  1.05e+01  3.88e-01  1.87e+02
  13   1.5180429e+05   1.5578516e+05  8.53e+00  3.14e-01  1.51e+02
  14   1.5218608e+05   1.5563658e+05  4.87e+00  1.80e-01  9.07e+01
  15   1.5295330e+05   1.5349094e+05  1.01e+00  3.74e-02  5.43e+01
  16   1.5313830e+05   1.5343286e+05  1.66e-01  6.13e-03  8.97e+00
  17   1.5319623e+05   1.5322301e+05  9.80e-03  3.61e-04  6.23e-01
  18   1.5320171e+05   1.5320290e+05  4.04e-04  1.49e-05  2.14e-02
  19   1.5320205e+05   1.5320207e+05  2.51e-06  9.27e-08  1.56e-04
  20   1.5320206e+05   1.5320206e+05  1.45e-08  4.62e-10  7.80e-07
Barrier time = 0.02 sec. (3.16 ticks)

Total time on 1 threads = 0.02 sec. (3.16 ticks)
QP status(1): optimal
Cplex Time: 0.02sec (det. 3.16 ticks)

Solution satisfies tolerances.

MIP Solution:       153202.062403    (84022 iterations, 609 nodes)
Final Solve:        153202.062172    (0 iterations)

Best possible:      153263.411351
Absolute gap:           61.348948
Relative gap:            0.000400

--- Restarting execution
--- agnostic_instrument.gms(261) 2 Mb
--- Reading solution for model LOCI
--- Executing after solve: elapsed 0:00:07.539
--- agnostic_instrument.gms(291) 3 Mb
--- GDX File C:\Users\a.eicke\Documents\Locational-investment-signals\Two node models\Output/agnostic_instrument.gdx
*** Status: Normal completion
--- Job agnostic_instrument.gms Stop 01/21/22 20:09:12 elapsed 0:00:07.539
